%mem=2GB
%nproc=2
#p mp4/aug-cc-PVTz int=ultrafine

PTCC

0 1

O
O       1        1.45000
H       1        0.96600     2      108.00000
H       2        0.96600     1      108.00000     3        0.02562
Kr      3        4.20766     1      147.92161     2        0.02562
